c   #vars: 127   #clauses: 576   #literals: 1576
c 
p cnf 127 576
40 96 97 -121 0
-2 -3 0
-4 -5 0
-6 -7 0
-8 -9 0
-10 -11 0
-12 -13 0
-14 -15 0
-16 -17 0
-18 -19 0
-20 -21 0
-22 -23 0
-24 -25 0
-26 -27 0
-28 -29 0
-30 -31 0
-32 -33 0
-34 -35 0
-36 -37 0
-38 -39 0
-48 50 102 103 0
-41 -42 0
-44 -45 0
-46 -47 0
-48 -49 0
51 94 95 -126 0
41 42 64 -78 0
-52 -53 0
-54 -55 0
-56 -57 0
-58 -59 0
-60 -61 0
-62 -63 0
24 25 75 -117 0
-65 -66 0
-67 -68 0
-69 -70 0
-71 -72 0
-73 -74 0
18 19 -26 80 0
14 15 41 42 0
20 21 41 42 0
52 53 123 124 0
-76 -77 0
-78 -79 0
89 90 93 -121 0
-81 -82 0
-83 -84 0
-85 -86 0
-87 -88 0
-89 -90 0
-91 -92 0
-78 104 108 109 0
26 27 112 113 0
-94 -95 0
-96 -97 0
-98 -99 0
-100 -101 0
-102 -103 0
24 25 -46 105 0
67 68 -69 114 0
-106 -107 0
-108 -109 0
-110 -111 0
-112 -113 0
-110 115 116 125 0
-115 -116 0
-117 -118 0
-119 -120 0
-121 -122 0
2 3 87 88 0
-123 -124 0
6 7 126 127 0
-126 -127 0
40 -87 96 97 0
-1 -45 0
58 59 106 107 0
40 87 88 -121 0
-1 -103 0
52 53 96 97 0
40 87 88 -96 0
-1 -122 0
16 17 106 107 0
-2 -6 0
-3 -7 0
32 33 34 35 0
-2 -32 0
-3 -33 0
4 5 96 97 0
-2 -69 0
-3 -70 0
-2 -83 0
-3 -84 0
62 63 96 97 0
-2 -87 0
-3 -88 0
85 86 110 111 0
-2 -108 0
-3 -109 0
18 19 24 25 0
-4 -20 0
-5 -21 0
22 23 36 37 0
-4 -22 0
-5 -23 0
65 66 67 68 0
-4 -65 0
-5 -66 0
2 3 69 70 0
-4 -78 0
-5 -79 0
69 70 123 124 0
-4 -89 0
-5 -90 0
65 66 106 107 0
-4 -96 0
-5 -97 0
58 59 121 122 0
-4 -112 0
-5 -113 0
26 27 81 82 0
-6 -81 0
-7 -82 0
56 57 98 99 0
-6 -91 0
-7 -92 0
52 53 71 72 0
-41 67 68 114 0
-7 -105 0
6 7 91 92 0
-6 -126 0
-7 -127 0
14 15 115 116 0
-8 -18 0
-9 -19 0
14 15 81 82 0
-8 -41 0
-9 -42 0
1 102 103 -121 0
2 3 108 109 0
-8 -76 0
-9 -77 0
-8 -110 0
-9 -111 0
8 9 119 120 0
-8 -119 0
-9 -120 0
22 23 117 118 0
-10 -34 0
-11 -35 0
12 13 22 23 0
-10 -58 0
-11 -59 0
1 -102 121 122 0
-10 -89 0
-11 -90 0
71 72 76 77 0
-10 -94 0
-11 -95 0
69 70 83 84 0
-10 -96 0
-11 -97 0
73 74 112 113 0
-12 -22 0
-13 -23 0
38 39 65 66 0
-12 -71 0
-13 -72 0
91 92 123 124 0
89 90 93 -94 0
-13 -80 0
78 79 117 118 0
-12 -98 0
-13 -99 0
-14 -18 0
-15 -19 0
14 15 18 19 0
-14 -41 0
-15 -42 0
8 9 18 19 0
-14 -46 0
-15 -47 0
93 94 95 -121 0
85 86 108 109 0
1 44 45 -121 0
85 86 98 99 0
-14 -81 0
-15 -82 0
110 111 119 120 0
-14 -115 0
-15 -116 0
-16 -18 0
-17 -19 0
46 47 60 61 0
-16 -60 0
-17 -61 0
10 11 96 97 0
-16 -62 0
-17 -63 0
-12 26 27 80 0
-16 -106 0
-17 -107 0
20 21 81 82 0
-18 -24 0
-19 -25 0
20 21 58 59 0
-18 -65 0
-19 -66 0
20 21 26 27 0
93 -94 121 122 0
-19 -80 0
24 25 48 49 0
-20 -26 0
-21 -27 0
-67 69 70 114 0
-20 -41 0
-21 -42 0
10 11 58 59 0
-20 -48 0
-21 -49 0
6 7 81 82 0
-20 -58 0
-21 -59 0
40 -87 121 122 0
-20 -81 0
-21 -82 0
36 37 98 99 0
-22 -36 0
-23 -37 0
26 27 50 -102 0
-22 -46 0
-23 -47 0
100 101 126 127 0
-22 -117 0
-23 -118 0
12 13 71 72 0
-24 -48 0
-25 -49 0
24 25 -52 75 0
-25 -64 0
28 29 100 101 0
-24 -65 0
-25 -66 0
71 72 78 79 0
-12 18 19 80 0
-25 -75 0
83 84 115 116 0
41 42 -69 114 0
-25 -105 0
87 88 126 127 0
51 -78 94 95 0
-27 -50 0
24 25 65 66 0
-26 -62 0
-27 -63 0
54 55 76 77 0
-26 -73 0
-27 -74 0
94 95 106 107 0
-89 93 121 122 0
-27 -80 0
1 -44 102 103 0
-26 -81 0
-27 -82 0
38 39 121 122 0
-26 -112 0
-27 -113 0
-18 26 27 80 0
-27 -125 0
30 31 119 120 0
-28 -32 0
-29 -33 0
30 31 115 116 0
-28 -52 0
-29 -53 0
30 31 38 39 0
-28 -67 0
-29 -68 0
30 31 54 55 0
-28 -71 0
-29 -72 0
54 55 89 90 0
-28 -94 0
-29 -95 0
-28 -100 0
-29 -101 0
30 31 32 33 0
-30 -32 0
-31 -33 0
-30 -38 0
-31 -39 0
44 45 56 57 0
-30 -54 0
-31 -55 0
28 29 32 33 0
-30 -71 0
-31 -72 0
44 45 119 120 0
-30 -115 0
-31 -116 0
8 9 110 111 0
-30 -119 0
-31 -120 0
10 11 34 35 0
-32 -34 0
-33 -35 0
34 35 91 92 0
-32 -67 0
-33 -68 0
34 35 76 77 0
-32 -83 0
-33 -84 0
-34 -71 0
-35 -72 0
16 17 18 19 0
1 44 45 -102 0
48 49 94 95 0
-34 -76 0
-35 -77 0
12 13 98 99 0
-34 -91 0
-35 -92 0
-36 -52 0
-37 -53 0
56 57 123 124 0
-36 -62 0
-37 -63 0
26 27 -115 125 0
-36 -87 0
-37 -88 0
4 5 65 66 0
-36 -98 0
-37 -99 0
-38 -46 0
-39 -47 0
-38 -65 0
-39 -66 0
36 37 52 53 0
-6 24 25 105 0
-39 -104 0
2 3 6 7 0
-38 -121 0
-39 -122 0
4 5 112 113 0
108 109 117 118 0
-26 50 102 103 0
-40 -88 0
48 49 50 -102 0
-40 -97 0
78 79 89 90 0
-26 48 49 50 0
-40 -122 0
16 17 62 63 0
-52 75 117 118 0
-42 -64 0
-38 78 79 104 0
-41 -110 0
-42 -111 0
46 47 69 70 0
-26 115 116 125 0
-42 -114 0
-24 64 78 79 0
60 61 112 113 0
-43 -88 0
22 23 46 47 0
-43 -101 0
26 27 73 74 0
-43 -124 0
28 29 94 95 0
-44 -56 0
-45 -57 0
51 78 79 -94 0
-44 -87 0
-45 -88 0
26 27 -110 125 0
-44 -119 0
-45 -120 0
26 27 -48 50 0
-46 -60 0
-47 -61 0
28 29 52 53 0
-46 -69 0
-47 -70 0
38 39 46 47 0
41 42 -67 114 0
-47 -105 0
26 27 62 63 0
51 -94 126 127 0
-49 -50 0
1 -44 121 122 0
-48 -94 0
-49 -95 0
-24 46 47 105 0
-48 -106 0
-49 -107 0
51 -78 126 127 0
-50 -103 0
43 -100 123 124 0
-24 41 42 64 0
-51 -79 0
14 15 46 47 0
24 25 64 -78 0
-51 -95 0
24 25 -41 64 0
-51 -127 0
36 37 62 63 0
-52 -71 0
-53 -72 0
20 21 48 49 0
12 13 -26 80 0
-53 -75 0
62 63 73 74 0
-52 -96 0
-53 -97 0
54 55 62 63 0
-52 -123 0
-53 -124 0
2 3 32 33 0
-54 -62 0
-55 -63 0
78 79 104 -108 0
-54 -76 0
-55 -77 0
48 49 106 107 0
-54 -89 0
-55 -90 0
16 17 60 61 0
-56 -96 0
-57 -97 0
-56 -98 0
-57 -99 0
-24 52 53 75 0
-56 -123 0
-57 -124 0
4 5 20 21 0
-58 -102 0
-59 -103 0
-6 46 47 105 0
-58 -106 0
-59 -107 0
43 87 88 -100 0
-58 -121 0
-59 -122 0
60 61 108 109 0
-60 -108 0
-61 -109 0
-41 64 78 79 0
-60 -112 0
-61 -113 0
10 11 89 90 0
-62 -73 0
-63 -74 0
18 19 65 66 0
-62 -96 0
-63 -97 0
89 90 91 92 0
-24 75 117 118 0
-64 -79 0
32 33 67 68 0
-65 -67 0
-66 -68 0
28 29 67 68 0
-65 -106 0
-66 -107 0
67 68 83 84 0
-67 -83 0
-68 -84 0
32 33 83 84 0
-67 -112 0
-68 -113 0
52 53 75 -117 0
110 111 -115 125 0
-68 -114 0
36 37 87 88 0
-69 -83 0
-70 -84 0
43 87 88 -123 0
-69 -100 0
-70 -101 0
4 5 78 79 0
-26 110 111 125 0
-70 -114 0
8 9 76 77 0
-69 -119 0
-70 -120 0
2 3 83 84 0
-69 -123 0
-70 -124 0
41 42 110 111 0
-71 -76 0
-72 -77 0
4 5 89 90 0
-71 -78 0
-72 -79 0
8 9 41 42 0
-73 -102 0
-74 -103 0
43 -87 100 101 0
-73 -112 0
-74 -113 0
28 29 71 72 0
12 13 -18 80 0
-75 -118 0
94 95 121 122 0
-78 -89 0
-79 -90 0
83 84 85 86 0
6 7 -46 105 0
-79 -104 0
-78 -117 0
-79 -118 0
-41 69 70 114 0
-81 -102 0
-82 -103 0
81 82 102 103 0
-83 -85 0
-84 -86 0
30 31 71 72 0
-83 -115 0
-84 -116 0
34 35 71 72 0
-85 -98 0
-86 -99 0
58 59 102 103 0
-85 -108 0
-86 -109 0
73 74 102 103 0
-85 -110 0
-86 -111 0
51 78 79 -126 0
-85 -112 0
-86 -113 0
-87 -126 0
-88 -127 0
40 -96 121 122 0
-89 -91 0
-90 -92 0
-38 104 108 109 0
-90 -93 0
4 5 22 23 0
-89 -115 0
-90 -116 0
43 100 101 -123 0
-91 -123 0
-92 -124 0
43 -87 123 124 0
38 39 104 -108 0
-93 -95 0
69 70 100 101 0
38 39 -78 104 0
-93 -122 0
67 68 112 113 0
-94 -106 0
-95 -107 0
106 107 123 124 0
-94 -121 0
-95 -122 0
-89 93 94 95 0
-100 -126 0
-101 -127 0
10 11 94 95 0
6 7 -24 105 0
-104 -109 0
85 86 112 113 0
-106 -123 0
-107 -124 0
56 57 96 97 0
-108 -117 0
-109 -118 0
44 45 87 88 0
-110 -119 0
-111 -120 0
89 90 115 116 0
-111 -125 0
69 70 119 120 0
-116 -125 0
